9 
9 
4 
8 
5 
7 
8 
5 
9 
6 
10 
5 
12 
9 
11 
10 
5 
9 
5 
2 
8 
4 
12 
8 
8 
6 
11 
5 
10 
5 
14 
6 
9 
6 
8 
5 
1 
7 
6 
9 
5 
9 
12 
7 
9 
10 
11 
11 
5 
15 
4 
11 
10 
10 
7 
8 
6 
8 
11 
5 
6 
7 
6 
10 
13 
13 
7 
7 
12 
5 
7 
10 
7 
7 
12 
8 
8 
5 
10 
10 
11 
7 
10 
11 
8 
9 
10 
16 
10 
3 
6 
7 
8 
5 
6 
6 
6 
8 
10 
8 
